Name:		mgval_0.40_5D
Optimal value:	-1
#Vehicles:	9
Capacity:	75
Depot Node:	1
#Nodes:		34
#Edges:		29
#Arcs:		63
#Required N:	25
#Required E:	17
#Required A:	37

ReN.	DEMAND	S. COST
N2	11	11
N3	20	20
N4	21	21
N5	3	3
N6	14	14
N7	8	8
N8	8	8
N10	4	4
N11	19	19
N12	9	9
N13	16	16
N14	6	6
N15	4	4
N17	5	5
N18	13	13
N19	6	6
N20	11	11
N21	11	11
N24	7	7
N25	5	5
N26	5	5
N27	3	3
N28	8	8
N29	7	7
N34	5	5

ReE.	FROM N.	TO N.	T. COST	DEMAND	S. COST
E13	8	14	2	5	5
E14	33	34	1	4	4
E15	21	27	7	11	11
E16	15	22	9	15	15
E17	23	28	5	5	5
E18	19	25	5	6	6
E19	26	31	9	12	12
E20	23	24	5	7	7
E21	25	26	9	16	16
E22	30	31	6	8	8
E23	16	17	5	8	8
E24	12	13	2	7	7
E25	2	13	9	16	16
E26	28	33	3	8	8
E27	9	10	3	7	7
E28	10	16	2	7	7
E29	22	23	1	2	2

EDGE	FROM N.	TO N.	T. COST
NrE1	6	12	7
NrE2	14	15	1
NrE3	13	14	4
NrE4	1	2	10
NrE5	13	19	6
NrE6	12	19	4
NrE7	4	10	4
NrE8	21	22	5
NrE9	3	9	6
NrE10	4	11	10
NrE11	29	30	4
NrE12	26	27	4

ReA.	FROM N.	TO N.	T. COST	DEMAND	S. COST
A27	32	33	5	5	5
A28	33	32	5	5	5
A29	6	7	9	6	6
A30	24	34	10	8	8
A31	14	20	3	5	5
A32	15	21	4	6	6
A33	24	11	15	10	10
A34	22	28	4	4	4
A35	31	32	3	3	3
A36	21	15	4	6	6
A37	11	5	4	3	3
A38	25	29	7	4	4
A39	13	7	5	3	3
A40	2	8	8	13	13
A41	1	7	8	4	4
A42	16	15	5	9	9
A43	19	18	7	14	14
A44	17	24	9	6	6
A45	9	15	5	4	4
A46	26	20	3	4	4
A47	27	28	10	6	6
A48	32	27	5	3	3
A49	6	18	9	18	18
A50	12	18	5	5	5
A51	29	18	9	8	8
A52	30	25	5	6	6
A53	28	27	10	7	7
A54	29	25	7	5	5
A55	10	11	8	6	6
A56	20	26	3	3	3
A57	1	6	2	2	2
A58	5	4	9	12	12
A59	7	6	9	6	6
A60	32	31	3	4	4
A61	4	3	3	4	4
A62	16	23	9	16	16
A63	34	24	10	8	8

ARC	FROM N.	TO N.	T. COST
NrA1	18	12	5
NrA2	3	10	2
NrA3	11	10	8
NrA4	15	9	5
NrA5	25	30	5
NrA6	28	34	2
NrA7	19	20	6
NrA8	27	32	5
NrA9	10	3	2
NrA10	3	2	5
NrA11	17	11	7
NrA12	3	4	3
NrA13	5	11	4
NrA14	34	28	2
NrA15	6	1	2
NrA16	18	29	9
NrA17	7	13	5
NrA18	11	24	15
NrA19	11	17	7
NrA20	20	14	3
NrA21	21	20	2
NrA22	7	1	8
NrA23	28	22	4
NrA24	8	9	7
NrA25	20	19	6
NrA26	24	17	9
